Experiments/Data/DNeg_n30k7j5.mps
NAME	DNeg_n30k7j5
ROWS
 N 	 OBJROW
 L	 R0 
COLUMNS
 C0	 OBJROW 	-26	 R0 	3	
 C1	 OBJROW 	-72	 R0 	5	
 C2	 OBJROW 	-14	 R0 	5	
 C3	 OBJROW 	-62	 R0 	8	
 C4	 OBJROW 	-82	 R0 	10	
 C5	 OBJROW 	-40	 R0 	15	
 C6	 OBJROW 	-75	 R0 	17	
 C7	 OBJROW 	-65	 R0 	17	
 C8	 OBJROW 	-60	 R0 	18	
 C9	 OBJROW 	-81	 R0 	20	
 C10	 OBJROW 	-73	 R0 	25	
 C11	 OBJROW 	-31	 R0 	27	
 C12	 OBJROW 	-75	 R0 	28	
 C13	 OBJROW 	-16	 R0 	40	
 C14	 OBJROW 	-5	 R0 	42	
 C15	 OBJROW 	-16	 R0 	45	
 C16	 OBJROW 	-91	 R0 	51	
 C17	 OBJROW 	-38	 R0 	51	
 C18	 OBJROW 	-54	 R0 	56	
 C19	 OBJROW 	-64	 R0 	58	
 C20	 OBJROW 	-74	 R0 	60	
 C21	 OBJROW 	-22	 R0 	61	
 C22	 OBJROW 	-19	 R0 	63	
 C23	 OBJROW 	-82	 R0 	64	
 C24	 OBJROW 	-27	 R0 	67	
 C25	 OBJROW 	-21	 R0 	68	
 C26	 OBJROW 	-90	 R0 	79	
 C27	 OBJROW 	-43	 R0 	92	
 C28	 OBJROW 	-3	 R0 	95	
 C29	 OBJROW 	-23	 R0 	99	
RHS
 RHS	 R0 	 938	
BOUNDS
 BV BOUND	C0	 1	
 BV BOUND	C1	 1	
 BV BOUND	C2	 1	
 BV BOUND	C3	 1	
 BV BOUND	C4	 1	
 BV BOUND	C5	 1	
 BV BOUND	C6	 1	
 BV BOUND	C7	 1	
 BV BOUND	C8	 1	
 BV BOUND	C9	 1	
 BV BOUND	C10	 1	
 BV BOUND	C11	 1	
 BV BOUND	C12	 1	
 BV BOUND	C13	 1	
 BV BOUND	C14	 1	
 BV BOUND	C15	 1	
 BV BOUND	C16	 1	
 BV BOUND	C17	 1	
 BV BOUND	C18	 1	
 BV BOUND	C19	 1	
 BV BOUND	C20	 1	
 BV BOUND	C21	 1	
 BV BOUND	C22	 1	
 BV BOUND	C23	 1	
 BV BOUND	C24	 1	
 BV BOUND	C25	 1	
 BV BOUND	C26	 1	
 BV BOUND	C27	 1	
 BV BOUND	C28	 1	
 BV BOUND	C29	 1	
ENDATA
