Experiments/Dataset/DNEGMibs/DNeg_n30k7j5.txt
N 30
M 31
LC 30
LC 31
LC 32
LC 33
LC 34
LC 35
LC 36
LC 37
LC 38
LC 39
LC 40
LC 41
LC 42
LC 43
LC 44
LC 45
LC 46
LC 47
LC 48
LC 49
LC 50
LC 51
LC 52
LC 53
LC 54
LC 55
LC 56
LC 57
LC 58
LC 59
LR 1
LR 2
LR 3
LR 4
LR 5
LR 6
LR 7
LR 8
LR 9
LR 10
LR 11
LR 12
LR 13
LR 14
LR 15
LR 16
LR 17
LR 18
LR 19
LR 20
LR 21
LR 22
LR 23
LR 24
LR 25
LR 26
LR 27
LR 28
LR 29
LR 30
LR 31
LO -26
LO -72
LO -14
LO -62
LO -82
LO -40
LO -75
LO -65
LO -60
LO -81
LO -73
LO -31
LO -75
LO -16
LO -5
LO -16
LO -91
LO -38
LO -54
LO -64
LO -74
LO -22
LO -19
LO -82
LO -27
LO -21
LO -90
LO -43
LO -3
LO -23
OS 1
IC 66
IC 4
IC 13
IC 26
IC 93
IC 30
IC 21
IC 86
IC 84
IC 57
IC 96
IC 28
IC 85
IC 29
IC 98
IC 25
IC 15
IC 5
IC 11
IC 48
IC 40
IC 1
IC 15
IC 31
IC 7
IC 23
IC 38
IC 99
IC 37
IC 11
IB 945
